(set-info :smt-lib-version 2.6)
(set-logic QF_NIA)
(set-info :source |
Generated by: Cristina Borralleras, Daniel Larraz, Albert Oliveras, Enric Rodriguez-Carbonell, Albert Rubio
Generated on: 2017-04-27
Generator: VeryMax
Application: Termination proving
Target solver: barcelogic
|)
(set-info :license "https://creativecommons.org/licenses/by/4.0/")
(set-info :category "industrial")
(set-info :status unsat)
(declare-fun Nl4N^01 () Int)
(declare-fun Nl4i^01 () Int)
(declare-fun Nl4seq^01 () Int)
(declare-fun Nl4walker^01 () Int)
(declare-fun Nl4z^01 () Int)
(declare-fun lam0n0 () Int)
(declare-fun lam0n1 () Int)
(declare-fun lam0n2 () Int)
(declare-fun lam0n3 () Int)
(declare-fun lam0n5 () Int)
(declare-fun lam0n4 () Int)
(declare-fun Nl4CT1 () Int)
(declare-fun lam1n0 () Int)
(declare-fun lam1n1 () Int)
(declare-fun lam1n2 () Int)
(declare-fun lam1n3 () Int)
(declare-fun lam1n5 () Int)
(declare-fun lam1n4 () Int)
(declare-fun lam2n0 () Int)
(declare-fun lam2n1 () Int)
(declare-fun lam2n2 () Int)
(declare-fun lam2n3 () Int)
(declare-fun lam2n5 () Int)
(declare-fun lam2n4 () Int)
(declare-fun lam3n0 () Int)
(declare-fun lam3n1 () Int)
(declare-fun lam3n2 () Int)
(declare-fun lam3n3 () Int)
(declare-fun lam3n5 () Int)
(declare-fun lam3n4 () Int)
(declare-fun lam4n0 () Int)
(declare-fun lam4n1 () Int)
(declare-fun lam4n2 () Int)
(declare-fun lam4n3 () Int)
(declare-fun lam4n4 () Int)
(declare-fun lam4n8 () Int)
(declare-fun lam4n5 () Int)
(declare-fun lam4n7 () Int)
(declare-fun lam4n6 () Int)
(declare-fun lam5n0 () Int)
(declare-fun lam5n1 () Int)
(declare-fun lam5n2 () Int)
(declare-fun lam5n3 () Int)
(declare-fun lam5n4 () Int)
(declare-fun lam5n8 () Int)
(declare-fun lam5n5 () Int)
(declare-fun lam5n7 () Int)
(declare-fun lam5n6 () Int)
(declare-fun lam6n0 () Int)
(declare-fun lam6n1 () Int)
(declare-fun lam6n2 () Int)
(declare-fun lam6n3 () Int)
(declare-fun lam6n4 () Int)
(declare-fun lam6n8 () Int)
(declare-fun lam6n5 () Int)
(declare-fun lam6n6 () Int)
(declare-fun lam6n7 () Int)
(declare-fun lam7n0 () Int)
(declare-fun lam7n1 () Int)
(declare-fun lam7n2 () Int)
(declare-fun lam7n3 () Int)
(declare-fun lam7n4 () Int)
(declare-fun lam7n8 () Int)
(declare-fun lam7n5 () Int)
(declare-fun lam7n6 () Int)
(declare-fun lam7n7 () Int)
(declare-fun lam8n0 () Int)
(declare-fun lam8n1 () Int)
(declare-fun lam8n2 () Int)
(declare-fun lam8n3 () Int)
(declare-fun lam8n6 () Int)
(declare-fun lam8n4 () Int)
(declare-fun lam8n5 () Int)
(declare-fun lam9n0 () Int)
(declare-fun lam9n1 () Int)
(declare-fun lam9n2 () Int)
(declare-fun lam9n3 () Int)
(declare-fun lam9n6 () Int)
(declare-fun lam9n4 () Int)
(declare-fun lam9n5 () Int)
(declare-fun lam10n0 () Int)
(declare-fun lam10n1 () Int)
(declare-fun lam10n6 () Int)
(declare-fun lam10n7 () Int)
(declare-fun lam10n8 () Int)
(declare-fun lam10n2 () Int)
(declare-fun lam10n3 () Int)
(declare-fun lam10n4 () Int)
(declare-fun lam10n5 () Int)
(declare-fun i^0 () Int)
(declare-fun walker^0 () Int)
(declare-fun z^0 () Int)
(declare-fun undef28 () Int)
(declare-fun N^0 () Int)
(declare-fun undef22 () Int)
(declare-fun undef26 () Int)
(declare-fun seq^0 () Int)
(declare-fun lam14n0 () Int)
(declare-fun lam14n1 () Int)
(declare-fun lam14n2 () Int)
(declare-fun lam14n3 () Int)
(declare-fun lam14n5 () Int)
(declare-fun lam14n4 () Int)
(declare-fun RFN1_CT () Int)
(declare-fun RFN1_walker^0 () Int)
(declare-fun RFN1_z^0 () Int)
(declare-fun RFN1_N^0 () Int)
(declare-fun RFN1_i^0 () Int)
(declare-fun RFN1_seq^0 () Int)
(declare-fun lam18n0 () Int)
(declare-fun lam18n1 () Int)
(declare-fun lam18n2 () Int)
(declare-fun lam18n3 () Int)
(declare-fun lam18n5 () Int)
(declare-fun lam18n4 () Int)
(declare-fun lam22n0 () Int)
(declare-fun lam22n1 () Int)
(declare-fun lam22n2 () Int)
(declare-fun lam22n3 () Int)
(declare-fun lam22n4 () Int)
(declare-fun lam22n8 () Int)
(declare-fun lam22n5 () Int)
(declare-fun lam22n7 () Int)
(declare-fun lam22n6 () Int)
(declare-fun lam26n0 () Int)
(declare-fun lam26n1 () Int)
(declare-fun lam26n2 () Int)
(declare-fun lam26n3 () Int)
(declare-fun lam26n4 () Int)
(declare-fun lam26n8 () Int)
(declare-fun lam26n5 () Int)
(declare-fun lam26n6 () Int)
(declare-fun lam26n7 () Int)
(declare-fun lam30n0 () Int)
(declare-fun lam30n1 () Int)
(declare-fun lam30n2 () Int)
(declare-fun lam30n3 () Int)
(declare-fun lam30n6 () Int)
(declare-fun lam30n4 () Int)
(declare-fun lam30n5 () Int)
(declare-fun lam12n0 () Int)
(declare-fun lam12n1 () Int)
(declare-fun lam12n2 () Int)
(declare-fun lam12n3 () Int)
(declare-fun lam12n5 () Int)
(declare-fun lam12n4 () Int)
(declare-fun lam13n0 () Int)
(declare-fun lam13n1 () Int)
(declare-fun lam13n2 () Int)
(declare-fun lam13n3 () Int)
(declare-fun lam13n5 () Int)
(declare-fun lam13n4 () Int)
(declare-fun lam16n0 () Int)
(declare-fun lam16n1 () Int)
(declare-fun lam16n2 () Int)
(declare-fun lam16n3 () Int)
(declare-fun lam16n5 () Int)
(declare-fun lam16n4 () Int)
(declare-fun lam17n0 () Int)
(declare-fun lam17n1 () Int)
(declare-fun lam17n2 () Int)
(declare-fun lam17n3 () Int)
(declare-fun lam17n5 () Int)
(declare-fun lam17n4 () Int)
(declare-fun lam20n0 () Int)
(declare-fun lam20n1 () Int)
(declare-fun lam20n2 () Int)
(declare-fun lam20n3 () Int)
(declare-fun lam20n4 () Int)
(declare-fun lam20n8 () Int)
(declare-fun lam20n5 () Int)
(declare-fun lam20n7 () Int)
(declare-fun lam20n6 () Int)
(declare-fun lam21n0 () Int)
(declare-fun lam21n1 () Int)
(declare-fun lam21n2 () Int)
(declare-fun lam21n3 () Int)
(declare-fun lam21n4 () Int)
(declare-fun lam21n8 () Int)
(declare-fun lam21n5 () Int)
(declare-fun lam21n7 () Int)
(declare-fun lam21n6 () Int)
(declare-fun lam24n0 () Int)
(declare-fun lam24n1 () Int)
(declare-fun lam24n2 () Int)
(declare-fun lam24n3 () Int)
(declare-fun lam24n4 () Int)
(declare-fun lam24n8 () Int)
(declare-fun lam24n5 () Int)
(declare-fun lam24n6 () Int)
(declare-fun lam24n7 () Int)
(declare-fun lam25n0 () Int)
(declare-fun lam25n1 () Int)
(declare-fun lam25n2 () Int)
(declare-fun lam25n3 () Int)
(declare-fun lam25n4 () Int)
(declare-fun lam25n8 () Int)
(declare-fun lam25n5 () Int)
(declare-fun lam25n6 () Int)
(declare-fun lam25n7 () Int)
(declare-fun lam28n0 () Int)
(declare-fun lam28n1 () Int)
(declare-fun lam28n2 () Int)
(declare-fun lam28n3 () Int)
(declare-fun lam28n6 () Int)
(declare-fun lam28n4 () Int)
(declare-fun lam28n5 () Int)
(declare-fun lam29n0 () Int)
(declare-fun lam29n1 () Int)
(declare-fun lam29n2 () Int)
(declare-fun lam29n3 () Int)
(declare-fun lam29n6 () Int)
(declare-fun lam29n4 () Int)
(declare-fun lam29n5 () Int)
(declare-fun lam11n0 () Int)
(declare-fun lam11n1 () Int)
(declare-fun lam11n2 () Int)
(declare-fun lam11n3 () Int)
(declare-fun lam11n5 () Int)
(declare-fun lam11n4 () Int)
(declare-fun lam15n0 () Int)
(declare-fun lam15n1 () Int)
(declare-fun lam15n2 () Int)
(declare-fun lam15n3 () Int)
(declare-fun lam15n5 () Int)
(declare-fun lam15n4 () Int)
(declare-fun lam19n0 () Int)
(declare-fun lam19n1 () Int)
(declare-fun lam19n2 () Int)
(declare-fun lam19n3 () Int)
(declare-fun lam19n4 () Int)
(declare-fun lam19n8 () Int)
(declare-fun lam19n5 () Int)
(declare-fun lam19n7 () Int)
(declare-fun lam19n6 () Int)
(declare-fun lam23n0 () Int)
(declare-fun lam23n1 () Int)
(declare-fun lam23n2 () Int)
(declare-fun lam23n3 () Int)
(declare-fun lam23n4 () Int)
(declare-fun lam23n8 () Int)
(declare-fun lam23n5 () Int)
(declare-fun lam23n6 () Int)
(declare-fun lam23n7 () Int)
(declare-fun lam27n0 () Int)
(declare-fun lam27n1 () Int)
(declare-fun lam27n2 () Int)
(declare-fun lam27n3 () Int)
(declare-fun lam27n6 () Int)
(declare-fun lam27n4 () Int)
(declare-fun lam27n5 () Int)
(assert ( and ( <= ( - 1 ) Nl4N^01 ) ( <= Nl4N^01 1 ) ( <= ( - 1 ) Nl4i^01 ) ( <= Nl4i^01 1 ) ( <= ( - 1 ) Nl4seq^01 ) ( <= Nl4seq^01 1 ) ( <= ( - 1 ) Nl4walker^01 ) ( <= Nl4walker^01 1 ) ( <= ( - 1 ) Nl4z^01 ) ( <= Nl4z^01 1 ) ))
(assert ( or ( and ( >= lam0n0 0 ) ( >= lam0n1 0 ) ( >= lam0n2 0 ) ( >= lam0n3 0 ) ( >= lam0n5 0 ) ( > ( + ( * 1 lam0n0 ) ( * 1 lam0n1 ) ( * 1 lam0n2 ) ( * ( - 1 ) lam0n4 ) ( * Nl4CT1 lam0n5 ) ( - 1 ) ) 0 ) ( = ( + ( * ( - 1 ) lam0n3 ) ( * Nl4N^01 lam0n5 ) ) 0 ) ( = ( + ( * 1 lam0n0 ) ( * Nl4i^01 lam0n5 ) ) 0 ) ( = ( * Nl4seq^01 lam0n5 ) 0 ) ( = ( + ( * ( - 1 ) lam0n0 ) ( * ( - 1 ) lam0n1 ) ( * 1 lam0n3 ) ( * Nl4walker^01 lam0n5 ) ) 0 ) ( = ( + ( * ( - 1 ) lam0n0 ) ( * ( - 1 ) lam0n2 ) ( * Nl4z^01 lam0n5 ) ) 0 ) ( = ( * 1 lam0n4 ) 0 ) ) ( and ( >= lam1n0 0 ) ( >= lam1n1 0 ) ( >= lam1n2 0 ) ( >= lam1n3 0 ) ( >= lam1n5 0 ) ( > ( + ( * 1 lam1n0 ) ( * 1 lam1n1 ) ( * 1 lam1n2 ) ( * ( - 1 ) lam1n4 ) ( * Nl4CT1 lam1n5 ) ( - 1 ( + ( + Nl4CT1 ( * Nl4walker^01 1 ) ) ( * Nl4z^01 ( - 1 ) ) ) ) ) 0 ) ( = ( + ( * ( - 1 ) lam1n3 ) ( * Nl4N^01 lam1n5 ) ( - ( + 0 Nl4N^01 ) ) ) 0 ) ( = ( + ( * 1 lam1n0 ) ( * Nl4i^01 lam1n5 ) ( - ( + 0 Nl4i^01 ) ) ) 0 ) ( = ( + ( * Nl4seq^01 lam1n5 ) ( - ( + 0 Nl4seq^01 ) ) ) 0 ) ( = ( + ( * ( - 1 ) lam1n0 ) ( * ( - 1 ) lam1n1 ) ( * 1 lam1n3 ) ( * Nl4walker^01 lam1n5 ) ( - ( + 0 ( * Nl4walker^01 1 ) ) ) ) 0 ) ( = ( + ( * ( - 1 ) lam1n0 ) ( * ( - 1 ) lam1n2 ) ( * Nl4z^01 lam1n5 ) ( - ( + 0 ( * Nl4z^01 1 ) ) ) ) 0 ) ( = ( * 1 lam1n4 ) 0 ) ) ))
(assert ( or ( and ( >= lam2n0 0 ) ( >= lam2n1 0 ) ( >= lam2n2 0 ) ( >= lam2n3 0 ) ( >= lam2n5 0 ) ( > ( + ( * 1 lam2n0 ) ( * 1 lam2n1 ) ( * 1 lam2n2 ) ( * Nl4CT1 lam2n5 ) ( - 1 ) ) 0 ) ( = ( + ( * ( - 1 ) lam2n3 ) ( * Nl4N^01 lam2n5 ) ) 0 ) ( = ( + ( * 1 lam2n0 ) ( * Nl4i^01 lam2n5 ) ) 0 ) ( = ( * Nl4seq^01 lam2n5 ) 0 ) ( = ( + ( * ( - 1 ) lam2n0 ) ( * ( - 1 ) lam2n1 ) ( * 1 lam2n3 ) ( * Nl4walker^01 lam2n5 ) ) 0 ) ( = ( + ( * ( - 1 ) lam2n0 ) ( * ( - 1 ) lam2n2 ) ( * Nl4z^01 lam2n5 ) ) 0 ) ( = ( * 1 lam2n4 ) 0 ) ) ( and ( >= lam3n0 0 ) ( >= lam3n1 0 ) ( >= lam3n2 0 ) ( >= lam3n3 0 ) ( >= lam3n5 0 ) ( > ( + ( * 1 lam3n0 ) ( * 1 lam3n1 ) ( * 1 lam3n2 ) ( * Nl4CT1 lam3n5 ) ( - 1 ( + ( + Nl4CT1 ( * Nl4walker^01 ( - 1 ) ) ) ( * Nl4z^01 ( - 1 ) ) ) ) ) 0 ) ( = ( + ( * ( - 1 ) lam3n3 ) ( * Nl4N^01 lam3n5 ) ( - ( + 0 Nl4N^01 ) ) ) 0 ) ( = ( + ( * 1 lam3n0 ) ( * Nl4i^01 lam3n5 ) ( - ( + 0 Nl4i^01 ) ) ) 0 ) ( = ( + ( * Nl4seq^01 lam3n5 ) ( - ( + 0 Nl4seq^01 ) ) ) 0 ) ( = ( + ( * ( - 1 ) lam3n0 ) ( * ( - 1 ) lam3n1 ) ( * 1 lam3n3 ) ( * Nl4walker^01 lam3n5 ) ( - ( + 0 ( * Nl4walker^01 1 ) ) ) ) 0 ) ( = ( + ( * ( - 1 ) lam3n0 ) ( * ( - 1 ) lam3n2 ) ( * Nl4z^01 lam3n5 ) ( - ( + 0 ( * Nl4z^01 1 ) ) ) ) 0 ) ( = ( * 1 lam3n4 ) 0 ) ) ))
(assert ( or ( and ( >= lam4n0 0 ) ( >= lam4n1 0 ) ( >= lam4n2 0 ) ( >= lam4n3 0 ) ( >= lam4n4 0 ) ( >= lam4n8 0 ) ( > ( + ( * 1 lam4n0 ) ( * 1 lam4n1 ) ( * 1 lam4n5 ) ( * ( - 1 ) lam4n7 ) ( * Nl4CT1 lam4n8 ) ( - 1 ) ) 0 ) ( = ( + ( * ( - 1 ) lam4n2 ) ( * Nl4N^01 lam4n8 ) ) 0 ) ( = ( + ( * 1 lam4n0 ) ( * 1 lam4n3 ) ( * Nl4i^01 lam4n8 ) ) 0 ) ( = ( + ( * 1 lam4n5 ) ( * Nl4seq^01 lam4n8 ) ) 0 ) ( = ( + ( * ( - 1 ) lam4n0 ) ( * ( - 1 ) lam4n1 ) ( * 1 lam4n2 ) ( * Nl4walker^01 lam4n8 ) ) 0 ) ( = ( + ( * ( - 1 ) lam4n0 ) ( * 1 lam4n6 ) ( * Nl4z^01 lam4n8 ) ) 0 ) ( = ( * ( - 1 ) lam4n5 ) 0 ) ( = ( * ( - 1 ) lam4n4 ) 0 ) ( = ( * 1 lam4n7 ) 0 ) ) ( and ( >= lam5n0 0 ) ( >= lam5n1 0 ) ( >= lam5n2 0 ) ( >= lam5n3 0 ) ( >= lam5n4 0 ) ( >= lam5n8 0 ) ( > ( + ( * 1 lam5n0 ) ( * 1 lam5n1 ) ( * 1 lam5n5 ) ( * ( - 1 ) lam5n7 ) ( * Nl4CT1 lam5n8 ) ( - 1 ( + ( + ( + ( + Nl4CT1 ( * Nl4i^01 0 ) ) ( * Nl4seq^01 0 ) ) ( * Nl4walker^01 1 ) ) ( * Nl4z^01 0 ) ) ) ) 0 ) ( = ( + ( * ( - 1 ) lam5n2 ) ( * Nl4N^01 lam5n8 ) ( - ( + 0 Nl4N^01 ) ) ) 0 ) ( = ( + ( * 1 lam5n0 ) ( * 1 lam5n3 ) ( * Nl4i^01 lam5n8 ) ) 0 ) ( = ( + ( * 1 lam5n5 ) ( * Nl4seq^01 lam5n8 ) ) 0 ) ( = ( + ( * ( - 1 ) lam5n0 ) ( * ( - 1 ) lam5n1 ) ( * 1 lam5n2 ) ( * Nl4walker^01 lam5n8 ) ( - ( + 0 ( * Nl4walker^01 1 ) ) ) ) 0 ) ( = ( + ( * ( - 1 ) lam5n0 ) ( * 1 lam5n6 ) ( * Nl4z^01 lam5n8 ) ) 0 ) ( = ( + ( * ( - 1 ) lam5n5 ) ( - ( + ( + 0 ( * Nl4i^01 1 ) ) ( * Nl4seq^01 1 ) ) ) ) 0 ) ( = ( + ( * ( - 1 ) lam5n4 ) ( - ( + 0 ( * Nl4z^01 1 ) ) ) ) 0 ) ( = ( * 1 lam5n7 ) 0 ) ) ))
(assert ( or ( and ( >= lam6n0 0 ) ( >= lam6n1 0 ) ( >= lam6n2 0 ) ( >= lam6n3 0 ) ( >= lam6n4 0 ) ( >= lam6n8 0 ) ( > ( + ( * 1 lam6n0 ) ( * 1 lam6n1 ) ( * 1 lam6n5 ) ( * Nl4CT1 lam6n8 ) ( - 1 ) ) 0 ) ( = ( + ( * ( - 1 ) lam6n2 ) ( * Nl4N^01 lam6n8 ) ) 0 ) ( = ( + ( * 1 lam6n0 ) ( * 1 lam6n3 ) ( * Nl4i^01 lam6n8 ) ) 0 ) ( = ( + ( * 1 lam6n5 ) ( * Nl4seq^01 lam6n8 ) ) 0 ) ( = ( + ( * ( - 1 ) lam6n0 ) ( * ( - 1 ) lam6n1 ) ( * 1 lam6n2 ) ( * Nl4walker^01 lam6n8 ) ) 0 ) ( = ( + ( * ( - 1 ) lam6n0 ) ( * 1 lam6n6 ) ( * Nl4z^01 lam6n8 ) ) 0 ) ( = ( * ( - 1 ) lam6n5 ) 0 ) ( = ( * ( - 1 ) lam6n4 ) 0 ) ( = ( * 1 lam6n7 ) 0 ) ) ( and ( >= lam7n0 0 ) ( >= lam7n1 0 ) ( >= lam7n2 0 ) ( >= lam7n3 0 ) ( >= lam7n4 0 ) ( >= lam7n8 0 ) ( > ( + ( * 1 lam7n0 ) ( * 1 lam7n1 ) ( * 1 lam7n5 ) ( * Nl4CT1 lam7n8 ) ( - 1 ( + ( + ( + ( + Nl4CT1 ( * Nl4i^01 0 ) ) ( * Nl4seq^01 0 ) ) ( * Nl4walker^01 ( - 1 ) ) ) ( * Nl4z^01 0 ) ) ) ) 0 ) ( = ( + ( * ( - 1 ) lam7n2 ) ( * Nl4N^01 lam7n8 ) ( - ( + 0 Nl4N^01 ) ) ) 0 ) ( = ( + ( * 1 lam7n0 ) ( * 1 lam7n3 ) ( * Nl4i^01 lam7n8 ) ) 0 ) ( = ( + ( * 1 lam7n5 ) ( * Nl4seq^01 lam7n8 ) ) 0 ) ( = ( + ( * ( - 1 ) lam7n0 ) ( * ( - 1 ) lam7n1 ) ( * 1 lam7n2 ) ( * Nl4walker^01 lam7n8 ) ( - ( + 0 ( * Nl4walker^01 1 ) ) ) ) 0 ) ( = ( + ( * ( - 1 ) lam7n0 ) ( * 1 lam7n6 ) ( * Nl4z^01 lam7n8 ) ) 0 ) ( = ( + ( * ( - 1 ) lam7n5 ) ( - ( + ( + 0 ( * Nl4i^01 1 ) ) ( * Nl4seq^01 1 ) ) ) ) 0 ) ( = ( + ( * ( - 1 ) lam7n4 ) ( - ( + 0 ( * Nl4z^01 1 ) ) ) ) 0 ) ( = ( * 1 lam7n7 ) 0 ) ) ))
(assert ( or ( and ( >= lam8n0 0 ) ( >= lam8n1 0 ) ( >= lam8n2 0 ) ( >= lam8n3 0 ) ( >= lam8n6 0 ) ( > ( + ( * 1 lam8n0 ) ( * 1 lam8n1 ) ( * 1 lam8n2 ) ( * Nl4CT1 lam8n6 ) ( - 1 ) ) 0 ) ( = ( + ( * ( - 1 ) lam8n3 ) ( * Nl4N^01 lam8n6 ) ) 0 ) ( = ( + ( * 1 lam8n0 ) ( * ( - 1 ) lam8n1 ) ( * Nl4i^01 lam8n6 ) ) 0 ) ( = ( * Nl4seq^01 lam8n6 ) 0 ) ( = ( + ( * ( - 1 ) lam8n0 ) ( * ( - 1 ) lam8n2 ) ( * 1 lam8n3 ) ( * Nl4walker^01 lam8n6 ) ) 0 ) ( = ( + ( * ( - 1 ) lam8n0 ) ( * 1 lam8n4 ) ( * Nl4z^01 lam8n6 ) ) 0 ) ( = ( * 1 lam8n5 ) 0 ) ) ( and ( >= lam9n0 0 ) ( >= lam9n1 0 ) ( >= lam9n2 0 ) ( >= lam9n3 0 ) ( >= lam9n6 0 ) ( > ( + ( * 1 lam9n0 ) ( * 1 lam9n1 ) ( * 1 lam9n2 ) ( * Nl4CT1 lam9n6 ) ( - 1 ( + ( + Nl4CT1 ( * Nl4i^01 ( - 1 ) ) ) ( * Nl4walker^01 ( - 1 ) ) ) ) ) 0 ) ( = ( + ( * ( - 1 ) lam9n3 ) ( * Nl4N^01 lam9n6 ) ( - ( + 0 Nl4N^01 ) ) ) 0 ) ( = ( + ( * 1 lam9n0 ) ( * ( - 1 ) lam9n1 ) ( * Nl4i^01 lam9n6 ) ( - ( + 0 ( * Nl4i^01 1 ) ) ) ) 0 ) ( = ( + ( * Nl4seq^01 lam9n6 ) ( - ( + 0 Nl4seq^01 ) ) ) 0 ) ( = ( + ( * ( - 1 ) lam9n0 ) ( * ( - 1 ) lam9n2 ) ( * 1 lam9n3 ) ( * Nl4walker^01 lam9n6 ) ( - ( + 0 ( * Nl4walker^01 1 ) ) ) ) 0 ) ( = ( + ( * ( - 1 ) lam9n0 ) ( * 1 lam9n4 ) ( * Nl4z^01 lam9n6 ) ( - ( + 0 Nl4z^01 ) ) ) 0 ) ( = ( * 1 lam9n5 ) 0 ) ) ))
(assert ( and ( not ( <= ( + ( * ( - 1 ) i^0 ) walker^0 z^0 ) 0 ) ) ( <= ( * ( - 1 ) undef28 ) 0 ) ( = ( + N^0 ( * ( - 1 ) undef22 ) ) 0 ) ( = ( + i^0 ( * ( - 1 ) undef26 ) ) 0 ) ( = ( + seq^0 ( * ( - 1 ) undef26 ) ) 0 ) ( = ( + z^0 ( * ( - 1 ) undef28 ) ) 0 ) ( = ( + ( - 1 ) walker^0 ) 0 ) ( = ( + ( - 1 ) undef26 ) 0 ) ( = ( + ( - 2 ) undef22 ) 0 ) ( <= ( + Nl4CT1 ( * ( + 0 Nl4N^01 ) N^0 ) ( * ( + 0 Nl4i^01 ) i^0 ) ( * ( + 0 Nl4seq^01 ) seq^0 ) ( * ( + 0 Nl4walker^01 ) walker^0 ) ( * ( + 0 Nl4z^01 ) z^0 ) ) 0 ) ( <= ( * ( - 1 ) z^0 ) 0 ) ))
(assert ( or ( and ( and ( and ( >= lam14n0 0 ) ( >= lam14n1 0 ) ( >= lam14n2 0 ) ( >= lam14n3 0 ) ( >= lam14n5 0 ) ( > ( + ( * 1 lam14n0 ) ( * 1 lam14n1 ) ( * 1 lam14n2 ) ( * ( - 1 ) lam14n4 ) ( * Nl4CT1 lam14n5 ) ( - 1 ( - ( + ( + RFN1_CT ( * RFN1_walker^0 1 ) ) ( * RFN1_z^0 ( - 1 ) ) ) RFN1_CT ) ) ) 0 ) ( = ( + ( * ( - 1 ) lam14n3 ) ( * Nl4N^01 lam14n5 ) ( - ( - ( + 0 RFN1_N^0 ) RFN1_N^0 ) ) ) 0 ) ( = ( + ( * 1 lam14n0 ) ( * Nl4i^01 lam14n5 ) ( - ( - ( + 0 RFN1_i^0 ) RFN1_i^0 ) ) ) 0 ) ( = ( + ( * Nl4seq^01 lam14n5 ) ( - ( - ( + 0 RFN1_seq^0 ) RFN1_seq^0 ) ) ) 0 ) ( = ( + ( * ( - 1 ) lam14n0 ) ( * ( - 1 ) lam14n1 ) ( * 1 lam14n3 ) ( * Nl4walker^01 lam14n5 ) ( - ( - ( + 0 ( * RFN1_walker^0 1 ) ) RFN1_walker^0 ) ) ) 0 ) ( = ( + ( * ( - 1 ) lam14n0 ) ( * ( - 1 ) lam14n2 ) ( * Nl4z^01 lam14n5 ) ( - ( - ( + 0 ( * RFN1_z^0 1 ) ) RFN1_z^0 ) ) ) 0 ) ( = ( * 1 lam14n4 ) 0 ) ) ( and ( >= lam18n0 0 ) ( >= lam18n1 0 ) ( >= lam18n2 0 ) ( >= lam18n3 0 ) ( >= lam18n5 0 ) ( > ( + ( * 1 lam18n0 ) ( * 1 lam18n1 ) ( * 1 lam18n2 ) ( * Nl4CT1 lam18n5 ) ( - 1 ( - ( + ( + RFN1_CT ( * RFN1_walker^0 ( - 1 ) ) ) ( * RFN1_z^0 ( - 1 ) ) ) RFN1_CT ) ) ) 0 ) ( = ( + ( * ( - 1 ) lam18n3 ) ( * Nl4N^01 lam18n5 ) ( - ( - ( + 0 RFN1_N^0 ) RFN1_N^0 ) ) ) 0 ) ( = ( + ( * 1 lam18n0 ) ( * Nl4i^01 lam18n5 ) ( - ( - ( + 0 RFN1_i^0 ) RFN1_i^0 ) ) ) 0 ) ( = ( + ( * Nl4seq^01 lam18n5 ) ( - ( - ( + 0 RFN1_seq^0 ) RFN1_seq^0 ) ) ) 0 ) ( = ( + ( * ( - 1 ) lam18n0 ) ( * ( - 1 ) lam18n1 ) ( * 1 lam18n3 ) ( * Nl4walker^01 lam18n5 ) ( - ( - ( + 0 ( * RFN1_walker^0 1 ) ) RFN1_walker^0 ) ) ) 0 ) ( = ( + ( * ( - 1 ) lam18n0 ) ( * ( - 1 ) lam18n2 ) ( * Nl4z^01 lam18n5 ) ( - ( - ( + 0 ( * RFN1_z^0 1 ) ) RFN1_z^0 ) ) ) 0 ) ( = ( * 1 lam18n4 ) 0 ) ) ( and ( >= lam22n0 0 ) ( >= lam22n1 0 ) ( >= lam22n2 0 ) ( >= lam22n3 0 ) ( >= lam22n4 0 ) ( >= lam22n8 0 ) ( > ( + ( * 1 lam22n0 ) ( * 1 lam22n1 ) ( * 1 lam22n5 ) ( * ( - 1 ) lam22n7 ) ( * Nl4CT1 lam22n8 ) ( - 1 ( - ( + ( + ( + ( + RFN1_CT ( * RFN1_i^0 0 ) ) ( * RFN1_seq^0 0 ) ) ( * RFN1_walker^0 1 ) ) ( * RFN1_z^0 0 ) ) RFN1_CT ) ) ) 0 ) ( = ( + ( * ( - 1 ) lam22n2 ) ( * Nl4N^01 lam22n8 ) ( - ( - ( + 0 RFN1_N^0 ) RFN1_N^0 ) ) ) 0 ) ( = ( + ( * 1 lam22n0 ) ( * 1 lam22n3 ) ( * Nl4i^01 lam22n8 ) ( - ( - RFN1_i^0 ) ) ) 0 ) ( = ( + ( * 1 lam22n5 ) ( * Nl4seq^01 lam22n8 ) ( - ( - RFN1_seq^0 ) ) ) 0 ) ( = ( + ( * ( - 1 ) lam22n0 ) ( * ( - 1 ) lam22n1 ) ( * 1 lam22n2 ) ( * Nl4walker^01 lam22n8 ) ( - ( - ( + 0 ( * RFN1_walker^0 1 ) ) RFN1_walker^0 ) ) ) 0 ) ( = ( + ( * ( - 1 ) lam22n0 ) ( * 1 lam22n6 ) ( * Nl4z^01 lam22n8 ) ( - ( - RFN1_z^0 ) ) ) 0 ) ( = ( + ( * ( - 1 ) lam22n5 ) ( - ( + ( + 0 ( * RFN1_i^0 1 ) ) ( * RFN1_seq^0 1 ) ) ) ) 0 ) ( = ( + ( * ( - 1 ) lam22n4 ) ( - ( + 0 ( * RFN1_z^0 1 ) ) ) ) 0 ) ( = ( * 1 lam22n7 ) 0 ) ) ( and ( >= lam26n0 0 ) ( >= lam26n1 0 ) ( >= lam26n2 0 ) ( >= lam26n3 0 ) ( >= lam26n4 0 ) ( >= lam26n8 0 ) ( > ( + ( * 1 lam26n0 ) ( * 1 lam26n1 ) ( * 1 lam26n5 ) ( * Nl4CT1 lam26n8 ) ( - 1 ( - ( + ( + ( + ( + RFN1_CT ( * RFN1_i^0 0 ) ) ( * RFN1_seq^0 0 ) ) ( * RFN1_walker^0 ( - 1 ) ) ) ( * RFN1_z^0 0 ) ) RFN1_CT ) ) ) 0 ) ( = ( + ( * ( - 1 ) lam26n2 ) ( * Nl4N^01 lam26n8 ) ( - ( - ( + 0 RFN1_N^0 ) RFN1_N^0 ) ) ) 0 ) ( = ( + ( * 1 lam26n0 ) ( * 1 lam26n3 ) ( * Nl4i^01 lam26n8 ) ( - ( - RFN1_i^0 ) ) ) 0 ) ( = ( + ( * 1 lam26n5 ) ( * Nl4seq^01 lam26n8 ) ( - ( - RFN1_seq^0 ) ) ) 0 ) ( = ( + ( * ( - 1 ) lam26n0 ) ( * ( - 1 ) lam26n1 ) ( * 1 lam26n2 ) ( * Nl4walker^01 lam26n8 ) ( - ( - ( + 0 ( * RFN1_walker^0 1 ) ) RFN1_walker^0 ) ) ) 0 ) ( = ( + ( * ( - 1 ) lam26n0 ) ( * 1 lam26n6 ) ( * Nl4z^01 lam26n8 ) ( - ( - RFN1_z^0 ) ) ) 0 ) ( = ( + ( * ( - 1 ) lam26n5 ) ( - ( + ( + 0 ( * RFN1_i^0 1 ) ) ( * RFN1_seq^0 1 ) ) ) ) 0 ) ( = ( + ( * ( - 1 ) lam26n4 ) ( - ( + 0 ( * RFN1_z^0 1 ) ) ) ) 0 ) ( = ( * 1 lam26n7 ) 0 ) ) ( and ( >= lam30n0 0 ) ( >= lam30n1 0 ) ( >= lam30n2 0 ) ( >= lam30n3 0 ) ( >= lam30n6 0 ) ( > ( + ( * 1 lam30n0 ) ( * 1 lam30n1 ) ( * 1 lam30n2 ) ( * Nl4CT1 lam30n6 ) ( - 1 ( - ( + ( + RFN1_CT ( * RFN1_i^0 ( - 1 ) ) ) ( * RFN1_walker^0 ( - 1 ) ) ) RFN1_CT ) ) ) 0 ) ( = ( + ( * ( - 1 ) lam30n3 ) ( * Nl4N^01 lam30n6 ) ( - ( - ( + 0 RFN1_N^0 ) RFN1_N^0 ) ) ) 0 ) ( = ( + ( * 1 lam30n0 ) ( * ( - 1 ) lam30n1 ) ( * Nl4i^01 lam30n6 ) ( - ( - ( + 0 ( * RFN1_i^0 1 ) ) RFN1_i^0 ) ) ) 0 ) ( = ( + ( * Nl4seq^01 lam30n6 ) ( - ( - ( + 0 RFN1_seq^0 ) RFN1_seq^0 ) ) ) 0 ) ( = ( + ( * ( - 1 ) lam30n0 ) ( * ( - 1 ) lam30n2 ) ( * 1 lam30n3 ) ( * Nl4walker^01 lam30n6 ) ( - ( - ( + 0 ( * RFN1_walker^0 1 ) ) RFN1_walker^0 ) ) ) 0 ) ( = ( + ( * ( - 1 ) lam30n0 ) ( * 1 lam30n4 ) ( * Nl4z^01 lam30n6 ) ( - ( - ( + 0 RFN1_z^0 ) RFN1_z^0 ) ) ) 0 ) ( = ( * 1 lam30n5 ) 0 ) ) ) ( or ( and ( and ( >= lam12n0 0 ) ( >= lam12n1 0 ) ( >= lam12n2 0 ) ( >= lam12n3 0 ) ( >= lam12n5 0 ) ( > ( + ( * 1 lam12n0 ) ( * 1 lam12n1 ) ( * 1 lam12n2 ) ( * ( - 1 ) lam12n4 ) ( * Nl4CT1 lam12n5 ) ( - 1 ( - RFN1_CT ) ) ) 0 ) ( = ( + ( * ( - 1 ) lam12n3 ) ( * Nl4N^01 lam12n5 ) ( - ( - RFN1_N^0 ) ) ) 0 ) ( = ( + ( * 1 lam12n0 ) ( * Nl4i^01 lam12n5 ) ( - ( - RFN1_i^0 ) ) ) 0 ) ( = ( + ( * Nl4seq^01 lam12n5 ) ( - ( - RFN1_seq^0 ) ) ) 0 ) ( = ( + ( * ( - 1 ) lam12n0 ) ( * ( - 1 ) lam12n1 ) ( * 1 lam12n3 ) ( * Nl4walker^01 lam12n5 ) ( - ( - RFN1_walker^0 ) ) ) 0 ) ( = ( + ( * ( - 1 ) lam12n0 ) ( * ( - 1 ) lam12n2 ) ( * Nl4z^01 lam12n5 ) ( - ( - RFN1_z^0 ) ) ) 0 ) ( = ( * 1 lam12n4 ) 0 ) ) ( and ( >= lam13n0 0 ) ( >= lam13n1 0 ) ( >= lam13n2 0 ) ( >= lam13n3 0 ) ( >= lam13n5 0 ) ( > ( + ( * 1 lam13n0 ) ( * 1 lam13n1 ) ( * 1 lam13n2 ) ( * ( - 1 ) lam13n4 ) ( * Nl4CT1 lam13n5 ) ( - 1 ( + ( - ( + ( + RFN1_CT ( * RFN1_walker^0 1 ) ) ( * RFN1_z^0 ( - 1 ) ) ) RFN1_CT ) 1 ) ) ) 0 ) ( = ( + ( * ( - 1 ) lam13n3 ) ( * Nl4N^01 lam13n5 ) ( - ( - ( + 0 RFN1_N^0 ) RFN1_N^0 ) ) ) 0 ) ( = ( + ( * 1 lam13n0 ) ( * Nl4i^01 lam13n5 ) ( - ( - ( + 0 RFN1_i^0 ) RFN1_i^0 ) ) ) 0 ) ( = ( + ( * Nl4seq^01 lam13n5 ) ( - ( - ( + 0 RFN1_seq^0 ) RFN1_seq^0 ) ) ) 0 ) ( = ( + ( * ( - 1 ) lam13n0 ) ( * ( - 1 ) lam13n1 ) ( * 1 lam13n3 ) ( * Nl4walker^01 lam13n5 ) ( - ( - ( + 0 ( * RFN1_walker^0 1 ) ) RFN1_walker^0 ) ) ) 0 ) ( = ( + ( * ( - 1 ) lam13n0 ) ( * ( - 1 ) lam13n2 ) ( * Nl4z^01 lam13n5 ) ( - ( - ( + 0 ( * RFN1_z^0 1 ) ) RFN1_z^0 ) ) ) 0 ) ( = ( * 1 lam13n4 ) 0 ) ) ) ( and ( and ( >= lam16n0 0 ) ( >= lam16n1 0 ) ( >= lam16n2 0 ) ( >= lam16n3 0 ) ( >= lam16n5 0 ) ( > ( + ( * 1 lam16n0 ) ( * 1 lam16n1 ) ( * 1 lam16n2 ) ( * Nl4CT1 lam16n5 ) ( - 1 ( - RFN1_CT ) ) ) 0 ) ( = ( + ( * ( - 1 ) lam16n3 ) ( * Nl4N^01 lam16n5 ) ( - ( - RFN1_N^0 ) ) ) 0 ) ( = ( + ( * 1 lam16n0 ) ( * Nl4i^01 lam16n5 ) ( - ( - RFN1_i^0 ) ) ) 0 ) ( = ( + ( * Nl4seq^01 lam16n5 ) ( - ( - RFN1_seq^0 ) ) ) 0 ) ( = ( + ( * ( - 1 ) lam16n0 ) ( * ( - 1 ) lam16n1 ) ( * 1 lam16n3 ) ( * Nl4walker^01 lam16n5 ) ( - ( - RFN1_walker^0 ) ) ) 0 ) ( = ( + ( * ( - 1 ) lam16n0 ) ( * ( - 1 ) lam16n2 ) ( * Nl4z^01 lam16n5 ) ( - ( - RFN1_z^0 ) ) ) 0 ) ( = ( * 1 lam16n4 ) 0 ) ) ( and ( >= lam17n0 0 ) ( >= lam17n1 0 ) ( >= lam17n2 0 ) ( >= lam17n3 0 ) ( >= lam17n5 0 ) ( > ( + ( * 1 lam17n0 ) ( * 1 lam17n1 ) ( * 1 lam17n2 ) ( * Nl4CT1 lam17n5 ) ( - 1 ( + ( - ( + ( + RFN1_CT ( * RFN1_walker^0 ( - 1 ) ) ) ( * RFN1_z^0 ( - 1 ) ) ) RFN1_CT ) 1 ) ) ) 0 ) ( = ( + ( * ( - 1 ) lam17n3 ) ( * Nl4N^01 lam17n5 ) ( - ( - ( + 0 RFN1_N^0 ) RFN1_N^0 ) ) ) 0 ) ( = ( + ( * 1 lam17n0 ) ( * Nl4i^01 lam17n5 ) ( - ( - ( + 0 RFN1_i^0 ) RFN1_i^0 ) ) ) 0 ) ( = ( + ( * Nl4seq^01 lam17n5 ) ( - ( - ( + 0 RFN1_seq^0 ) RFN1_seq^0 ) ) ) 0 ) ( = ( + ( * ( - 1 ) lam17n0 ) ( * ( - 1 ) lam17n1 ) ( * 1 lam17n3 ) ( * Nl4walker^01 lam17n5 ) ( - ( - ( + 0 ( * RFN1_walker^0 1 ) ) RFN1_walker^0 ) ) ) 0 ) ( = ( + ( * ( - 1 ) lam17n0 ) ( * ( - 1 ) lam17n2 ) ( * Nl4z^01 lam17n5 ) ( - ( - ( + 0 ( * RFN1_z^0 1 ) ) RFN1_z^0 ) ) ) 0 ) ( = ( * 1 lam17n4 ) 0 ) ) ) ( and ( and ( >= lam20n0 0 ) ( >= lam20n1 0 ) ( >= lam20n2 0 ) ( >= lam20n3 0 ) ( >= lam20n4 0 ) ( >= lam20n8 0 ) ( > ( + ( * 1 lam20n0 ) ( * 1 lam20n1 ) ( * 1 lam20n5 ) ( * ( - 1 ) lam20n7 ) ( * Nl4CT1 lam20n8 ) ( - 1 ( - RFN1_CT ) ) ) 0 ) ( = ( + ( * ( - 1 ) lam20n2 ) ( * Nl4N^01 lam20n8 ) ( - ( - RFN1_N^0 ) ) ) 0 ) ( = ( + ( * 1 lam20n0 ) ( * 1 lam20n3 ) ( * Nl4i^01 lam20n8 ) ( - ( - RFN1_i^0 ) ) ) 0 ) ( = ( + ( * 1 lam20n5 ) ( * Nl4seq^01 lam20n8 ) ( - ( - RFN1_seq^0 ) ) ) 0 ) ( = ( + ( * ( - 1 ) lam20n0 ) ( * ( - 1 ) lam20n1 ) ( * 1 lam20n2 ) ( * Nl4walker^01 lam20n8 ) ( - ( - RFN1_walker^0 ) ) ) 0 ) ( = ( + ( * ( - 1 ) lam20n0 ) ( * 1 lam20n6 ) ( * Nl4z^01 lam20n8 ) ( - ( - RFN1_z^0 ) ) ) 0 ) ( = ( * ( - 1 ) lam20n5 ) 0 ) ( = ( * ( - 1 ) lam20n4 ) 0 ) ( = ( * 1 lam20n7 ) 0 ) ) ( and ( >= lam21n0 0 ) ( >= lam21n1 0 ) ( >= lam21n2 0 ) ( >= lam21n3 0 ) ( >= lam21n4 0 ) ( >= lam21n8 0 ) ( > ( + ( * 1 lam21n0 ) ( * 1 lam21n1 ) ( * 1 lam21n5 ) ( * ( - 1 ) lam21n7 ) ( * Nl4CT1 lam21n8 ) ( - 1 ( + ( - ( + ( + ( + ( + RFN1_CT ( * RFN1_i^0 0 ) ) ( * RFN1_seq^0 0 ) ) ( * RFN1_walker^0 1 ) ) ( * RFN1_z^0 0 ) ) RFN1_CT ) 1 ) ) ) 0 ) ( = ( + ( * ( - 1 ) lam21n2 ) ( * Nl4N^01 lam21n8 ) ( - ( - ( + 0 RFN1_N^0 ) RFN1_N^0 ) ) ) 0 ) ( = ( + ( * 1 lam21n0 ) ( * 1 lam21n3 ) ( * Nl4i^01 lam21n8 ) ( - ( - RFN1_i^0 ) ) ) 0 ) ( = ( + ( * 1 lam21n5 ) ( * Nl4seq^01 lam21n8 ) ( - ( - RFN1_seq^0 ) ) ) 0 ) ( = ( + ( * ( - 1 ) lam21n0 ) ( * ( - 1 ) lam21n1 ) ( * 1 lam21n2 ) ( * Nl4walker^01 lam21n8 ) ( - ( - ( + 0 ( * RFN1_walker^0 1 ) ) RFN1_walker^0 ) ) ) 0 ) ( = ( + ( * ( - 1 ) lam21n0 ) ( * 1 lam21n6 ) ( * Nl4z^01 lam21n8 ) ( - ( - RFN1_z^0 ) ) ) 0 ) ( = ( + ( * ( - 1 ) lam21n5 ) ( - ( + ( + 0 ( * RFN1_i^0 1 ) ) ( * RFN1_seq^0 1 ) ) ) ) 0 ) ( = ( + ( * ( - 1 ) lam21n4 ) ( - ( + 0 ( * RFN1_z^0 1 ) ) ) ) 0 ) ( = ( * 1 lam21n7 ) 0 ) ) ) ( and ( and ( >= lam24n0 0 ) ( >= lam24n1 0 ) ( >= lam24n2 0 ) ( >= lam24n3 0 ) ( >= lam24n4 0 ) ( >= lam24n8 0 ) ( > ( + ( * 1 lam24n0 ) ( * 1 lam24n1 ) ( * 1 lam24n5 ) ( * Nl4CT1 lam24n8 ) ( - 1 ( - RFN1_CT ) ) ) 0 ) ( = ( + ( * ( - 1 ) lam24n2 ) ( * Nl4N^01 lam24n8 ) ( - ( - RFN1_N^0 ) ) ) 0 ) ( = ( + ( * 1 lam24n0 ) ( * 1 lam24n3 ) ( * Nl4i^01 lam24n8 ) ( - ( - RFN1_i^0 ) ) ) 0 ) ( = ( + ( * 1 lam24n5 ) ( * Nl4seq^01 lam24n8 ) ( - ( - RFN1_seq^0 ) ) ) 0 ) ( = ( + ( * ( - 1 ) lam24n0 ) ( * ( - 1 ) lam24n1 ) ( * 1 lam24n2 ) ( * Nl4walker^01 lam24n8 ) ( - ( - RFN1_walker^0 ) ) ) 0 ) ( = ( + ( * ( - 1 ) lam24n0 ) ( * 1 lam24n6 ) ( * Nl4z^01 lam24n8 ) ( - ( - RFN1_z^0 ) ) ) 0 ) ( = ( * ( - 1 ) lam24n5 ) 0 ) ( = ( * ( - 1 ) lam24n4 ) 0 ) ( = ( * 1 lam24n7 ) 0 ) ) ( and ( >= lam25n0 0 ) ( >= lam25n1 0 ) ( >= lam25n2 0 ) ( >= lam25n3 0 ) ( >= lam25n4 0 ) ( >= lam25n8 0 ) ( > ( + ( * 1 lam25n0 ) ( * 1 lam25n1 ) ( * 1 lam25n5 ) ( * Nl4CT1 lam25n8 ) ( - 1 ( + ( - ( + ( + ( + ( + RFN1_CT ( * RFN1_i^0 0 ) ) ( * RFN1_seq^0 0 ) ) ( * RFN1_walker^0 ( - 1 ) ) ) ( * RFN1_z^0 0 ) ) RFN1_CT ) 1 ) ) ) 0 ) ( = ( + ( * ( - 1 ) lam25n2 ) ( * Nl4N^01 lam25n8 ) ( - ( - ( + 0 RFN1_N^0 ) RFN1_N^0 ) ) ) 0 ) ( = ( + ( * 1 lam25n0 ) ( * 1 lam25n3 ) ( * Nl4i^01 lam25n8 ) ( - ( - RFN1_i^0 ) ) ) 0 ) ( = ( + ( * 1 lam25n5 ) ( * Nl4seq^01 lam25n8 ) ( - ( - RFN1_seq^0 ) ) ) 0 ) ( = ( + ( * ( - 1 ) lam25n0 ) ( * ( - 1 ) lam25n1 ) ( * 1 lam25n2 ) ( * Nl4walker^01 lam25n8 ) ( - ( - ( + 0 ( * RFN1_walker^0 1 ) ) RFN1_walker^0 ) ) ) 0 ) ( = ( + ( * ( - 1 ) lam25n0 ) ( * 1 lam25n6 ) ( * Nl4z^01 lam25n8 ) ( - ( - RFN1_z^0 ) ) ) 0 ) ( = ( + ( * ( - 1 ) lam25n5 ) ( - ( + ( + 0 ( * RFN1_i^0 1 ) ) ( * RFN1_seq^0 1 ) ) ) ) 0 ) ( = ( + ( * ( - 1 ) lam25n4 ) ( - ( + 0 ( * RFN1_z^0 1 ) ) ) ) 0 ) ( = ( * 1 lam25n7 ) 0 ) ) ) ( and ( and ( >= lam28n0 0 ) ( >= lam28n1 0 ) ( >= lam28n2 0 ) ( >= lam28n3 0 ) ( >= lam28n6 0 ) ( > ( + ( * 1 lam28n0 ) ( * 1 lam28n1 ) ( * 1 lam28n2 ) ( * Nl4CT1 lam28n6 ) ( - 1 ( - RFN1_CT ) ) ) 0 ) ( = ( + ( * ( - 1 ) lam28n3 ) ( * Nl4N^01 lam28n6 ) ( - ( - RFN1_N^0 ) ) ) 0 ) ( = ( + ( * 1 lam28n0 ) ( * ( - 1 ) lam28n1 ) ( * Nl4i^01 lam28n6 ) ( - ( - RFN1_i^0 ) ) ) 0 ) ( = ( + ( * Nl4seq^01 lam28n6 ) ( - ( - RFN1_seq^0 ) ) ) 0 ) ( = ( + ( * ( - 1 ) lam28n0 ) ( * ( - 1 ) lam28n2 ) ( * 1 lam28n3 ) ( * Nl4walker^01 lam28n6 ) ( - ( - RFN1_walker^0 ) ) ) 0 ) ( = ( + ( * ( - 1 ) lam28n0 ) ( * 1 lam28n4 ) ( * Nl4z^01 lam28n6 ) ( - ( - RFN1_z^0 ) ) ) 0 ) ( = ( * 1 lam28n5 ) 0 ) ) ( and ( >= lam29n0 0 ) ( >= lam29n1 0 ) ( >= lam29n2 0 ) ( >= lam29n3 0 ) ( >= lam29n6 0 ) ( > ( + ( * 1 lam29n0 ) ( * 1 lam29n1 ) ( * 1 lam29n2 ) ( * Nl4CT1 lam29n6 ) ( - 1 ( + ( - ( + ( + RFN1_CT ( * RFN1_i^0 ( - 1 ) ) ) ( * RFN1_walker^0 ( - 1 ) ) ) RFN1_CT ) 1 ) ) ) 0 ) ( = ( + ( * ( - 1 ) lam29n3 ) ( * Nl4N^01 lam29n6 ) ( - ( - ( + 0 RFN1_N^0 ) RFN1_N^0 ) ) ) 0 ) ( = ( + ( * 1 lam29n0 ) ( * ( - 1 ) lam29n1 ) ( * Nl4i^01 lam29n6 ) ( - ( - ( + 0 ( * RFN1_i^0 1 ) ) RFN1_i^0 ) ) ) 0 ) ( = ( + ( * Nl4seq^01 lam29n6 ) ( - ( - ( + 0 RFN1_seq^0 ) RFN1_seq^0 ) ) ) 0 ) ( = ( + ( * ( - 1 ) lam29n0 ) ( * ( - 1 ) lam29n2 ) ( * 1 lam29n3 ) ( * Nl4walker^01 lam29n6 ) ( - ( - ( + 0 ( * RFN1_walker^0 1 ) ) RFN1_walker^0 ) ) ) 0 ) ( = ( + ( * ( - 1 ) lam29n0 ) ( * 1 lam29n4 ) ( * Nl4z^01 lam29n6 ) ( - ( - ( + 0 RFN1_z^0 ) RFN1_z^0 ) ) ) 0 ) ( = ( * 1 lam29n5 ) 0 ) ) ) ) ) ( or ( and ( >= lam11n0 0 ) ( >= lam11n1 0 ) ( >= lam11n2 0 ) ( >= lam11n3 0 ) ( >= lam11n5 0 ) ( > ( + ( * 1 lam11n0 ) ( * 1 lam11n1 ) ( * 1 lam11n2 ) ( * ( - 1 ) lam11n4 ) ( * Nl4CT1 lam11n5 ) ( - 1 ) ) 0 ) ( = ( + ( * ( - 1 ) lam11n3 ) ( * Nl4N^01 lam11n5 ) ) 0 ) ( = ( + ( * 1 lam11n0 ) ( * Nl4i^01 lam11n5 ) ) 0 ) ( = ( * Nl4seq^01 lam11n5 ) 0 ) ( = ( + ( * ( - 1 ) lam11n0 ) ( * ( - 1 ) lam11n1 ) ( * 1 lam11n3 ) ( * Nl4walker^01 lam11n5 ) ) 0 ) ( = ( + ( * ( - 1 ) lam11n0 ) ( * ( - 1 ) lam11n2 ) ( * Nl4z^01 lam11n5 ) ) 0 ) ( = ( * 1 lam11n4 ) 0 ) ) ( and ( >= lam15n0 0 ) ( >= lam15n1 0 ) ( >= lam15n2 0 ) ( >= lam15n3 0 ) ( >= lam15n5 0 ) ( > ( + ( * 1 lam15n0 ) ( * 1 lam15n1 ) ( * 1 lam15n2 ) ( * Nl4CT1 lam15n5 ) ( - 1 ) ) 0 ) ( = ( + ( * ( - 1 ) lam15n3 ) ( * Nl4N^01 lam15n5 ) ) 0 ) ( = ( + ( * 1 lam15n0 ) ( * Nl4i^01 lam15n5 ) ) 0 ) ( = ( * Nl4seq^01 lam15n5 ) 0 ) ( = ( + ( * ( - 1 ) lam15n0 ) ( * ( - 1 ) lam15n1 ) ( * 1 lam15n3 ) ( * Nl4walker^01 lam15n5 ) ) 0 ) ( = ( + ( * ( - 1 ) lam15n0 ) ( * ( - 1 ) lam15n2 ) ( * Nl4z^01 lam15n5 ) ) 0 ) ( = ( * 1 lam15n4 ) 0 ) ) ( and ( >= lam19n0 0 ) ( >= lam19n1 0 ) ( >= lam19n2 0 ) ( >= lam19n3 0 ) ( >= lam19n4 0 ) ( >= lam19n8 0 ) ( > ( + ( * 1 lam19n0 ) ( * 1 lam19n1 ) ( * 1 lam19n5 ) ( * ( - 1 ) lam19n7 ) ( * Nl4CT1 lam19n8 ) ( - 1 ) ) 0 ) ( = ( + ( * ( - 1 ) lam19n2 ) ( * Nl4N^01 lam19n8 ) ) 0 ) ( = ( + ( * 1 lam19n0 ) ( * 1 lam19n3 ) ( * Nl4i^01 lam19n8 ) ) 0 ) ( = ( + ( * 1 lam19n5 ) ( * Nl4seq^01 lam19n8 ) ) 0 ) ( = ( + ( * ( - 1 ) lam19n0 ) ( * ( - 1 ) lam19n1 ) ( * 1 lam19n2 ) ( * Nl4walker^01 lam19n8 ) ) 0 ) ( = ( + ( * ( - 1 ) lam19n0 ) ( * 1 lam19n6 ) ( * Nl4z^01 lam19n8 ) ) 0 ) ( = ( * ( - 1 ) lam19n5 ) 0 ) ( = ( * ( - 1 ) lam19n4 ) 0 ) ( = ( * 1 lam19n7 ) 0 ) ) ( and ( >= lam23n0 0 ) ( >= lam23n1 0 ) ( >= lam23n2 0 ) ( >= lam23n3 0 ) ( >= lam23n4 0 ) ( >= lam23n8 0 ) ( > ( + ( * 1 lam23n0 ) ( * 1 lam23n1 ) ( * 1 lam23n5 ) ( * Nl4CT1 lam23n8 ) ( - 1 ) ) 0 ) ( = ( + ( * ( - 1 ) lam23n2 ) ( * Nl4N^01 lam23n8 ) ) 0 ) ( = ( + ( * 1 lam23n0 ) ( * 1 lam23n3 ) ( * Nl4i^01 lam23n8 ) ) 0 ) ( = ( + ( * 1 lam23n5 ) ( * Nl4seq^01 lam23n8 ) ) 0 ) ( = ( + ( * ( - 1 ) lam23n0 ) ( * ( - 1 ) lam23n1 ) ( * 1 lam23n2 ) ( * Nl4walker^01 lam23n8 ) ) 0 ) ( = ( + ( * ( - 1 ) lam23n0 ) ( * 1 lam23n6 ) ( * Nl4z^01 lam23n8 ) ) 0 ) ( = ( * ( - 1 ) lam23n5 ) 0 ) ( = ( * ( - 1 ) lam23n4 ) 0 ) ( = ( * 1 lam23n7 ) 0 ) ) ( and ( >= lam27n0 0 ) ( >= lam27n1 0 ) ( >= lam27n2 0 ) ( >= lam27n3 0 ) ( >= lam27n6 0 ) ( > ( + ( * 1 lam27n0 ) ( * 1 lam27n1 ) ( * 1 lam27n2 ) ( * Nl4CT1 lam27n6 ) ( - 1 ) ) 0 ) ( = ( + ( * ( - 1 ) lam27n3 ) ( * Nl4N^01 lam27n6 ) ) 0 ) ( = ( + ( * 1 lam27n0 ) ( * ( - 1 ) lam27n1 ) ( * Nl4i^01 lam27n6 ) ) 0 ) ( = ( * Nl4seq^01 lam27n6 ) 0 ) ( = ( + ( * ( - 1 ) lam27n0 ) ( * ( - 1 ) lam27n2 ) ( * 1 lam27n3 ) ( * Nl4walker^01 lam27n6 ) ) 0 ) ( = ( + ( * ( - 1 ) lam27n0 ) ( * 1 lam27n4 ) ( * Nl4z^01 lam27n6 ) ) 0 ) ( = ( * 1 lam27n5 ) 0 ) ) ) ))
(check-sat)
(exit)
